\ Model (null)_copy
\ LP format - for model browsing. Use MPS format to capture full model detail.
Minimize
 
Subject To
 c1_j2: x020 + x021 + x022 + x023 + x024 + x025 + x026 + x120 + x121 + x122
   + x123 + x124 + x125 + x126 = 1
 c6_p1: x011 + x021 + x031 = 1
 c6_p3: x013 + x023 + x033 = 1
 c6_p6: x016 + x026 + x036 = 1
 c7_j1_p1: x011 - x121 - x131 + x211 = 0
 c7_j1_p6: x016 - x126 - x136 + x216 = 0
 c7_j2_p0: x020 + x120 - x210 - x230 = 0
 c7_j2_p2: x022 + x122 - x212 - x232 = 0
 c7_j2_p3: x023 + x123 - x213 - x233 = 0
 c7_j2_p4: x024 + x124 - x214 - x234 = 0
 c7_j2_p5: x025 + x125 - x215 - x235 = 0
 c8_p1: x031 + x131 + x231 = 1
 c8_p3: x033 + x133 + x233 = 1
 c8_p6: x036 + x136 + x236 = 1
 c9_i2_j1_p0: - u10 + u20 + 100000 x210 <= 98440
 c9_i2_j3_p0: u20 - u30 + 100000 x230 <= 98080
 c9_i2_j1_p1: - u11 + u21 + 100000 x211 <= 98440
 c9_i2_j3_p1: u21 - u31 + 100000 x231 <= 98080
 c9_i2_j1_p2: - u12 + u22 + 100000 x212 <= 98440
 c9_i2_j3_p2: u22 - u32 + 100000 x232 <= 98080
 c9_i1_j2_p3: u13 - u23 + 100000 x123 <= 98530
 c9_i1_j3_p3: u13 - u33 + 100000 x133 <= 99490
 c9_i2_j1_p3: - u13 + u23 + 100000 x213 <= 98440
 c9_i2_j3_p3: u23 - u33 + 100000 x233 <= 98080
 c9_i2_j1_p4: - u14 + u24 + 100000 x214 <= 98440
 c9_i2_j3_p4: u24 - u34 + 100000 x234 <= 98080
 c9_i2_j1_p5: - u15 + u25 + 100000 x215 <= 98440
 c9_i2_j3_p5: u25 - u35 + 100000 x235 <= 98080
 c9_i2_j1_p6: - u16 + u26 + 100000 x216 <= 98440
 c9_i2_j3_p6: u26 - u36 + 100000 x236 <= 98080
 c15-2_i1_p0: u10 <= 1080
 c15-2_i1_p1: u11 <= 1080
 c15-2_i1_p2: u12 <= 1080
 c15-2_i1_p4: u14 <= 1080
 c15-2_i1_p5: u15 <= 1080
 c15-2_i1_p6: u16 <= 1080
 c15-2_i3_p0: u30 <= 1080
 c15-2_i3_p1: u31 <= 1080
 c15-2_i3_p2: u32 <= 1080
 c15-2_i3_p3: u33 <= 1080
 c15-2_i3_p4: u34 <= 1080
 c15-2_i3_p5: u35 <= 1080
 c15-2_i3_p6: u36 <= 1080
Bounds
 u10 free
 u11 free
 u12 free
 u13 free
 u14 free
 u15 free
 u16 free
 u30 free
 u31 free
 u32 free
 u33 free
 u34 free
 u35 free
 u36 free
Binaries
 x011 x013 x016 x020 x021 x022 x023 x024 x025 x026 x031 x033 x036 x120 x121
 x122 x123 x124 x125 x126 x131 x133 x136 x210 x211 x212 x213 x214 x215 x216
 x230 x231 x232 x233 x234 x235 x236
End
